n = 26;
lu = [|-84, 428
      |-615, 575
      |597, 662
      |-246, -150
      |-577, 137
      |94, 637
      |-510, -402
      |-661, 269
      |-180, 393
      |-624, -528
      |-349, 551
      |146, 411
      |37, 664
      |-538, 420
      |-628, 146
      |-167, 476
      |-103, 202
      |-481, 482
      |-106, 632
      |-448, 475
      |336, 580
      |-412, -43
      |-44, -38
      |-160, 362
      |-512, -393
      |-178, -32|];
